12 48 6 10
1 16 9 1 8 20 20 14 9 14 12 10 6 8 2 6 6 6 8 17 2 18 9 8 8 5 20 15 17 2 7 9 20 11 12 11 7 16 11 12 17 9 17 19 6 1 19 10 
7.26 12.7 7.54 2.5 9.37 14.31 15.19 12.18 4.79 4.96 9.13 10.83 9.43 0.3 11.97 6.13 9.98 12.22 9.88 1.91 3.51 3.62 6.1 4.88 0.26 2.49 2.39 6.52 7.07 12.62 12.02 5.68 5.38 11.76 5.21 0.18 3.92 5.19 12.29 14.86 4.82 3.2 6.39 7.42 8.67 13.65 7.4 13.47 
10.8 4 1.75 7.11 7.02 8.47 2.7 2.21 12.22 3.22 0.48 14.99 15.72 8.8 14.99 6.42 12.82 12.55 5 15.61 12.96 4.44 7.28 6.83 3.65 15 15.33 0.02 9.87 2.64 0.63 1.03 10.61 15 5.04 10.58 3.06 15.87 13.66 1.67 1.66 1.48 1.35 15.57 13.68 6.49 11.79 1.73 
13.47 10.6 13.71 4.42 8.77 1.35 12 14.92 11.93 6.1 1.09 3.09 9.99 1.63 14.18 5.96 5.73 15.17 10.41 8.34 2.69 14.45 13.78 4.66 7.05 11.71 11.2 5.16 5.34 15.9 13.51 2 9.31 11.35 7.06 6.64 11.63 8.83 1.99 1.8 0.08 14.93 14.46 8.76 7.15 13.43 13.35 15.61 
14.67 8.09 8.32 2.39 5.56 1.22 12.44 15.72 1.83 14.97 4.93 11.77 2.28 11.03 0.35 2.46 4.35 6.27 5.64 0.6 4.4 0.21 6.03 2.47 6.31 5.13 12.21 15.35 8.14 1.67 10.2 11.85 9.65 1.11 10.37 6.51 6.33 13.56 4.89 10.35 7.35 4.63 7.81 13 6.67 6.78 11.69 5.86 
4.17 7.93 9.74 7.16 14.69 15.29 3.32 3.89 15.59 2.49 14.44 6.68 2.3 8.54 3.28 6.83 3.07 5.08 4.89 0.42 12.58 6.17 3.6 10.78 11.83 14.87 1.01 7.02 1.53 11.66 10.84 3.63 14.12 12.38 2.7 15.52 3.98 7.51 15.18 4.58 4.65 6.26 2.03 0.1 8.97 13.92 2.59 11.12 
9.73 14.87 3.47 12.06 6.65 5.52 4.48 13.1 2.75 3.77 3.5 4.38 2.22 6.05 0.38 1.89 13.15 8.71 15.4 9.66 4.53 14.58 7.12 2.82 12.6 9.19 6.16 8.84 5.27 8.82 10.04 3.68 9.43 7.06 7.33 13.24 12.01 8.03 12.96 10.41 11.04 1.86 14.38 11.16 6.79 5.96 5.59 3.7 
8 8 8 8 8 8 8 8 8 8 8 8 8 8 8 8 8 8 8 8 8 8 8 8 8 8 8 8 8 8 8 8 8 8 8 8 8 8 8 8 8 8 8 8 8 8 8 8 
6.03 0.14 9.68 3.61 3.76 13.26 1.6 8.09 9.13 7.34 6.5 14.63 1.92 6.34 1.54 12.31 13.27 12.36 5.75 2.67 14.64 6.65 7.97 0.86 13.14 6.28 9.47 15.72 13.78 13.7 14.46 1.05 3 14.1 10.7 14.64 8.26 15.1 9.59 14.82 3.21 2.55 3.62 0.72 1.64 4.75 5.58 12.24 
15.68 10.4 11.11 11.37 10.59 7.9 11.63 10.09 4.06 2.02 15.6 0.06 10.07 3.3 1.06 5.29 13.78 10.47 12.36 6.76 12.68 5.89 15.39 10.94 7.22 0.39 13.07 2.57 15.63 3.81 9.87 10.62 7.46 12 13.66 9.85 7.77 9.21 8.54 5.09 10.18 1.92 14.44 4.33 12.05 11.83 10.9 7.09 
6.64 2.86 1.33 11 13.54 14.26 6.54 11.81 12.63 15.57 11.56 1.98 3.98 15.21 7.6 15.87 6.72 11.75 14.4 8.99 1.8 8.86 5.46 7.17 7.93 0.93 12.51 13.42 1.69 1.31 2.81 13.64 10.14 10.71 13.4 8.93 2.51 5.49 15.23 4.73 15.6 4.92 10.95 9.52 14.03 6.05 7.1 10.42 
0.17 10.25 5.3 10.73 10.96 15.47 8.27 10.84 9.42 14.5 11.58 1.97 9.39 13.99 13.35 7.21 15.94 2.31 11.2 4.46 6.74 11.67 8.22 2.75 4.13 7.24 4.9 5.87 14.4 0.59 9.56 6.3 6.7 14.97 9.03 4.88 7.39 10.79 14.22 14.3 2.39 0.1 9.75 9.86 5.83 1.58 10.7 6.51 
1.08 1.26 15.57 13.36 0.34 0.34 1.59 5.05 15.83 13.66 8.65 11.76 0.86 7.3 6.52 8.37 11.54 11.44 3.64 8.63 13.81 6.54 14.11 10.51 11.3 1.02 4.11 1.49 12.77 12.57 8.77 11.31 11.44 12.5 2.42 10.59 6.84 7.56 6.48 3.59 11.05 12.47 6.5 6.17 11.48 7.87 0.52 10.59 
1 1 1 1 1 1 1 1 1 1 1 1 1 1 1 1 1 1 1 1 1 1 1 1 1 1 1 1 1 1 1 1 1 1 1 1 1 1 1 1 1 1 1 1 1 1 1 1 
1 1 1 1 1 1 1 1 1 1 1 1 1 1 1 1 1 1 1 1 1 1 1 1 1 1 1 1 1 1 1 1 1 1 1 1 1 1 1 1 1 1 1 1 1 1 1 1 
1 1 1 1 1 1 1 1 1 1 1 1 1 1 1 1 1 1 1 1 1 1 1 1 1 1 1 1 1 1 1 1 1 1 1 1 1 1 1 1 1 1 1 1 1 1 1 1 
1 1 1 1 1 1 1 1 1 1 1 1 1 1 1 1 1 1 1 1 1 1 1 1 1 1 1 1 1 1 1 1 1 1 1 1 1 1 1 1 1 1 1 1 1 1 1 1 
1 1 1 1 1 1 1 1 1 1 1 1 1 1 1 1 1 1 1 1 1 1 1 1 1 1 1 1 1 1 1 1 1 1 1 1 1 1 1 1 1 1 1 1 1 1 1 1 
1 1 1 1 1 1 1 1 1 1 1 1 1 1 1 1 1 1 1 1 1 1 1 1 1 1 1 1 1 1 1 1 1 1 1 1 1 1 1 1 1 1 1 1 1 1 1 1 
1 1 1 1 1 1 1 1 1 1 1 1 1 1 1 1 1 1 1 1 1 1 1 1 1 1 1 1 1 1 1 1 1 1 1 1 1 1 1 1 1 1 1 1 1 1 1 1 
1 1 1 1 1 1 1 1 1 1 1 1 1 1 1 1 1 1 1 1 1 1 1 1 1 1 1 1 1 1 1 1 1 1 1 1 1 1 1 1 1 1 1 1 1 1 1 1 
1 1 1 1 1 1 1 1 1 1 1 1 1 1 1 1 1 1 1 1 1 1 1 1 1 1 1 1 1 1 1 1 1 1 1 1 1 1 1 1 1 1 1 1 1 1 1 1 
1 1 1 1 1 1 1 1 1 1 1 1 1 1 1 1 1 1 1 1 1 1 1 1 1 1 1 1 1 1 1 1 1 1 1 1 1 1 1 1 1 1 1 1 1 1 1 1 
1 1 1 1 1 1 1 1 1 1 1 1 1 1 1 1 1 1 1 1 1 1 1 1 1 1 1 1 1 1 1 1 1 1 1 1 1 1 1 1 1 1 1 1 1 1 1 1 
1 1 1 1 1 1 1 1 1 1 1 1 1 1 1 1 1 1 1 1 1 1 1 1 1 1 1 1 1 1 1 1 1 1 1 1 1 1 1 1 1 1 1 1 1 1 1 1 
0.01 0.01 0.01 0.01 0.01 0.01 0.01 0.01 0.01 0.01 0.01 0.01 0.01 0.01 0.01 0.01 0.01 0.01 0.01 0.01 0.01 0.01 0.01 0.01 0.01 0.01 0.01 0.01 0.01 0.01 0.01 0.01 0.01 0.01 0.01 0.01 0.01 0.01 0.01 0.01 0.01 0.01 0.01 0.01 0.01 0.01 0.01 0.01 
0.02 0.02 0.02 0.02 0.02 0.02 0.02 0.02 0.02 0.02 0.02 0.02 0.02 0.02 0.02 0.02 0.02 0.02 0.02 0.02 0.02 0.02 0.02 0.02 0.02 0.02 0.02 0.02 0.02 0.02 0.02 0.02 0.02 0.02 0.02 0.02 0.02 0.02 0.02 0.02 0.02 0.02 0.02 0.02 0.02 0.02 0.02 0.02 
0.03 0.03 0.03 0.03 0.03 0.03 0.03 0.03 0.03 0.03 0.03 0.03 0.03 0.03 0.03 0.03 0.03 0.03 0.03 0.03 0.03 0.03 0.03 0.03 0.03 0.03 0.03 0.03 0.03 0.03 0.03 0.03 0.03 0.03 0.03 0.03 0.03 0.03 0.03 0.03 0.03 0.03 0.03 0.03 0.03 0.03 0.03 0.03 
0.04 0.04 0.04 0.04 0.04 0.04 0.04 0.04 0.04 0.04 0.04 0.04 0.04 0.04 0.04 0.04 0.04 0.04 0.04 0.04 0.04 0.04 0.04 0.04 0.04 0.04 0.04 0.04 0.04 0.04 0.04 0.04 0.04 0.04 0.04 0.04 0.04 0.04 0.04 0.04 0.04 0.04 0.04 0.04 0.04 0.04 0.04 0.04 
0.05 0.05 0.05 0.05 0.05 0.05 0.05 0.05 0.05 0.05 0.05 0.05 0.05 0.05 0.05 0.05 0.05 0.05 0.05 0.05 0.05 0.05 0.05 0.05 0.05 0.05 0.05 0.05 0.05 0.05 0.05 0.05 0.05 0.05 0.05 0.05 0.05 0.05 0.05 0.05 0.05 0.05 0.05 0.05 0.05 0.05 0.05 0.05 
0.06 0.06 0.06 0.06 0.06 0.06 0.06 0.06 0.06 0.06 0.06 0.06 0.06 0.06 0.06 0.06 0.06 0.06 0.06 0.06 0.06 0.06 0.06 0.06 0.06 0.06 0.06 0.06 0.06 0.06 0.06 0.06 0.06 0.06 0.06 0.06 0.06 0.06 0.06 0.06 0.06 0.06 0.06 0.06 0.06 0.06 0.06 0.06 
0.07 0.07 0.07 0.07 0.07 0.07 0.07 0.07 0.07 0.07 0.07 0.07 0.07 0.07 0.07 0.07 0.07 0.07 0.07 0.07 0.07 0.07 0.07 0.07 0.07 0.07 0.07 0.07 0.07 0.07 0.07 0.07 0.07 0.07 0.07 0.07 0.07 0.07 0.07 0.07 0.07 0.07 0.07 0.07 0.07 0.07 0.07 0.07 
0.2 0.2 0.2 0.2 0.2 0.2 0.2 0.2 0.2 0.2 0.2 0.2 0.2 0.2 0.2 0.2 0.2 0.2 0.2 0.2 0.2 0.2 0.2 0.2 0.2 0.2 0.2 0.2 0.2 0.2 0.2 0.2 0.2 0.2 0.2 0.2 0.2 0.2 0.2 0.2 0.2 0.2 0.2 0.2 0.2 0.2 0.2 0.2 
0.4 0.4 0.4 0.4 0.4 0.4 0.4 0.4 0.4 0.4 0.4 0.4 0.4 0.4 0.4 0.4 0.4 0.4 0.4 0.4 0.4 0.4 0.4 0.4 0.4 0.4 0.4 0.4 0.4 0.4 0.4 0.4 0.4 0.4 0.4 0.4 0.4 0.4 0.4 0.4 0.4 0.4 0.4 0.4 0.4 0.4 0.4 0.4 
0.6 0.6 0.6 0.6 0.6 0.6 0.6 0.6 0.6 0.6 0.6 0.6 0.6 0.6 0.6 0.6 0.6 0.6 0.6 0.6 0.6 0.6 0.6 0.6 0.6 0.6 0.6 0.6 0.6 0.6 0.6 0.6 0.6 0.6 0.6 0.6 0.6 0.6 0.6 0.6 0.6 0.6 0.6 0.6 0.6 0.6 0.6 0.6 
0.8 0.8 0.8 0.8 0.8 0.8 0.8 0.8 0.8 0.8 0.8 0.8 0.8 0.8 0.8 0.8 0.8 0.8 0.8 0.8 0.8 0.8 0.8 0.8 0.8 0.8 0.8 0.8 0.8 0.8 0.8 0.8 0.8 0.8 0.8 0.8 0.8 0.8 0.8 0.8 0.8 0.8 0.8 0.8 0.8 0.8 0.8 0.8 
1 1 1 1 1 1 1 1 1 1 1 1 1 1 1 1 1 1 1 1 1 1 1 1 1 1 1 1 1 1 1 1 1 1 1 1 1 1 1 1 1 1 1 1 1 1 1 1 
